#  Hybrid MD decision making package
#
#  Copyright (c) Tamas K. Stenczel 2021.

%BLOCK LATTICE_CART
15.000000  0.000000  0.000000
 0.000000 15.000000  0.000000
 0.000000  0.000000 15.000000
%ENDBLOCK LATTICE_CART

%BLOCK POSITIONS_ABS
H  7.500000  7.500000  7.868583
H  7.500000  7.500000  7.131417
C  9.710195  8.086663 10.166950
C 10.607639  7.657701  9.130029
C  8.828443  7.184106 10.736323
C 10.590871  6.341500  8.701424
C 10.687924  6.042540  7.300299
C 10.721462  8.723097  8.173944
C 10.816121  8.435159  6.823485
C 10.798498  7.069886  6.379586
C  7.051916  8.859148 10.708102
C  7.967206  9.794983 10.117526
C  7.474342  7.576422 11.008626
C  9.272792  9.417658  9.852969
C  9.895462  9.809569  8.618954
C  7.238980 10.582094  9.162312
C  7.840773 10.959239  7.974597
C  9.195117 10.569245  7.697662
C  5.374161  6.654115 10.170096
C  4.937901  7.985520  9.853171
C  6.621848  6.453802 10.736730
C  5.758490  9.067996 10.119733
C  5.873753 10.135703  9.164181
C  4.201519  7.930187  8.620421
C  4.312053  8.957390  7.699603
C  5.163974 10.081363  7.976091
C  6.999479  4.520223  9.294031
C  5.705566  4.727091  8.704789
C  7.448575  5.367116 10.293883
C  4.910853  5.777417  9.132971
C  4.183929  6.564936  8.176527
C  5.804808  4.430742  7.302344
C  5.104510  5.190315  6.381014
C  4.278582  6.276817  6.826042
C  9.675823  5.405374  9.292253
C  9.211862  4.525032  8.255720
C  8.813066  5.817058 10.294389
C  7.895902  4.094861  8.255764
C  7.159178  4.040812  7.025439
C  9.836006  4.918550  7.023895
C  9.126376  4.864265  5.835769
C  7.761135  4.417873  5.837738
C  5.289916  6.913136  4.832970
C  5.727303  5.582103  5.146953
C  7.032928  5.204949  4.882489
C  6.171650  7.815768  4.263762
C  5.324012  9.594538  5.707671
C  4.409034  8.658347  6.298425
C  4.392391  7.342155  5.869837
C  6.186863  9.182829  4.705636
C  8.000322 10.479964  5.705980
C  7.103885 10.905282  6.744273
C  5.787937 10.474912  6.744201
C  7.551282  9.632948  4.706255
C  9.625863  8.346081  4.829947
C 10.089185  9.222774  5.867044
C  9.294301 10.273068  6.295174
C  8.378132  8.546351  4.263469
C  7.948245  6.140894  4.291949
C  9.241695  5.932044  4.880229
C 10.062172  7.014647  5.146797
C  7.525790  7.423643  3.991555
%ENDBLOCK POSITIONS_ABS


# calculation settings for gamma point only
kpoints_MP_grid 1 1 1
kpoints_MP_offset 0.0 0.0 0.0

# geometry optimisation specific
FIX_ALL_CELL: True
FIX_COM: True
