#  Hybrid MD decision making package
#
#  Copyright (c) Tamas K. Stenczel 2021.

%BLOCK LATTICE_CART
 4.350000  0.000000  0.000000
 0.000000  4.350000  0.000000
 0.000000  0.000000  4.350000
%ENDBLOCK LATTICE_CART

%BLOCK POSITIONS_ABS
Si  0.000000  0.000000  0.010000
 C  1.087500  1.087500  1.087500
Si  0.000000  2.175000  2.175000
 C  1.087500  3.262500  3.262500
Si  2.175000  0.000000  2.175000
 C  3.262500  1.087500  3.262500
Si  2.175000  2.175000  0.000000
 C  3.262500  3.262500  1.087500
%ENDBLOCK POSITIONS_ABS
