#  Hybrid MD decision making package
#
#  Copyright (c) Tamas K. Stenczel 2021-2023.

FIX_ALL_CELL True
FIX_COM      True

%BLOCK LATTICE_CART
 7.679180  0.000000  0.000000
 0.000000  7.679180  0.000000
 0.000000  0.000000  5.430000
%ENDBLOCK LATTICE_CART

%BLOCK POSITIONS_ABS
Si  0.000000  0.000000  0.000000
Si  1.919795  0.000000  1.357500
Si  1.919795  1.919795  2.715000
Si  0.000000  1.919795  4.072500
Si  0.000000  3.839590  0.000000
Si  1.919795  3.839590  1.357500
Si  1.919795  5.759385  2.715000
Si  0.000000  5.759385  4.072500
Si  3.839590  0.000000  0.000000
Si  5.759385  0.000000  1.357500
Si  5.759385  1.919795  2.715000
Si  3.839590  1.919795  4.072500
Si  3.839590  3.839590  0.000000
Si  5.759385  3.839590  1.357500
Si  5.759385  5.759385  2.715000
Si  3.839590  5.759385  4.072500
%ENDBLOCK POSITIONS_ABS
